(declare-datatype list (par (a) ((Nil) (Cons (Cons_0 a) (Cons_1 (list a))))))
(declare-fun in_set (par (a) (a (list a)) Bool))
(assert (par (a) (forall ((x a)) (not (in_set a x (Nil a))))))
(assert (par (a) (forall ((x a) (y a) (ys (list a))) (= (in_set a x (Cons a y ys)) (or (= x y) (in_set a x ys))))))
(declare-fun less (par (a) (a a) Bool))
(declare-fun leq (par (a) (a a) Bool))
(assert (par (a) (forall ((x a) (y a)) (= (less a x y) (and (leq a x y) (distinct x y))))))
(assert (par (a) (forall ((x a)) (leq a x x))))
(assert (par (a) (forall ((x a) (y a) (z a)) (=> (and (leq a x y) (leq a y z)) (leq a x z)))))
(assert (par (a) (forall ((x a) (y a)) (=> (and (leq a x y) (leq a y x)) (= x y)))))
(assert (par (a) (forall ((x a) (y a)) (or (leq a x y) (leq a y x)))))
(declare-fun append (par (a) ((list a) (list a)) (list a)))
(assert (par (a) (forall ((ys (list a))) (= (append a (Nil a) ys) ys))))
(assert (par (a) (forall ((x a) (xs (list a)) (ys (list a))) (= (append a (Cons a x xs) ys) (Cons a x (append a xs ys))))))
(declare-fun sorted (par (a) ((list a)) Bool))
(assert (par (a) (sorted a (Nil a))))
(assert (par (a) (forall ((x a)) (sorted a (Cons a x (Nil a))))))
(assert (par (a) (forall ((x a) (z a) (y (list a))) (= (sorted a (Cons a x (Cons a z y))) (and (sorted a (Cons a z y)) (leq a x z))))))

; sorted(xs @ ys) = (sorted xs & sorted ys & (!x in set(xs). !y in set(ys). x <= y))
(assert-not (par (a) (forall ((xs (list a)) (ys (list a))) (= (sorted a (append a xs ys)) (and (sorted a xs) (sorted a ys) (forall ((x a) (y a)) (=> (and (in_set a x xs) (in_set a y ys)) (leq a x y))))))))
